n = 103;
k = 2750;
price = [19, 18, 22, 18, 23, 16, 24, 24, 18, 20, 16, 18, 17, 23, 24, 20, 19, 25, 19, 25, 20, 21, 15, 19, 22, 18, 23, 20, 20, 19, 16, 19, 24, 15, 19, 16, 20, 25, 22, 19, 15, 15, 24, 17, 15, 21, 21, 24, 18, 21, 16, 15, 23, 25, 16, 20, 24, 24, 24, 25, 15, 15, 21, 24, 15, 21, 18, 15, 25, 19, 23, 19, 20, 25, 21, 18, 22, 22, 21, 18, 25, 24, 17, 23, 15, 18, 23, 17, 21, 25, 16, 17, 19, 22, 18, 21, 24, 25, 18, 21, 21, 16, 23];
m = 0;
buy = [];
free = [];
